letting n =  10
letting blocks =  [[1, 3], [1, 4], [2, 1], [2, 3], [2, 5], [2, 9], [3, 3], [3, 5], [3, 7], [3, 10], [4, 1], [4, 3], [4, 5], [4, 10], [5, 3], [5, 6], [5, 7], [6, 1], [6, 4], [6, 9], [7, 1], [7, 2], [7, 3], [7, 7], [7, 10], [8, 5], [8, 9], [9, 2], [9, 4], [9, 8], [9, 9], [9, 10], [10, 2], [10, 4], [10, 6], [10, 10]]
